LOCATION,SINGAPORE,-,SGP,IWEC Data,486980,1.37,103.98,8.0,16.0
DESIGN CONDITIONS,1,Climate Design Data 2009 ASHRAE Handbook,,Heating,12,23,23.5,20.9,15.6,28.4,21.3,16,28,8.3,28,7.7,28.4,2,320,Cooling,6,5.5,33.2,26.4,32.8,26.3,32.2,26.2,27.7,30.7,27.4,30.4,27.2,30.2,4.1,30,27,22.8,29.5,26.6,22.2,29.1,26.2,21.7,28.8,88.5,30.9,87.1,30.9,86,30.7,0,Extremes,7.5,6.6,5.8,30.5,21.8,34.3,0.6,1,21.4,35,21,35.6,20.7,36.2,20.3,37
TYPICAL/EXTREME PERIODS,3,No Dry Season - Week Near Average Annual,Typical,7/30,8/ 5,No Dry Season - Week Near Annual Max,Extreme,6/ 4,6/10,No Dry Season - Week Near Annual Min,Extreme,12/10,12/16
GROUND TEMPERATURES,3,.5,,,,27.55,28.03,28.32,28.42,28.26,27.88,27.40,26.92,26.59,26.51,26.68,27.05,2,,,,27.35,27.73,28.01,28.14,28.14,27.92,27.59,27.22,26.91,26.76,26.79,27.01,4,,,,27.28,27.53,27.75,27.87,27.95,27.86,27.66,27.41,27.17,27.02,26.98,27.07
HOLIDAYS/DAYLIGHT SAVINGS,No,0,0,0
COMMENTS 1,"IWEC- WMO#486980 - South-west Pacific -- Original Source Data (c) 2001 American Society of Heating, Refrigerating and Air-Conditioning Engineers (ASHRAE), Inc., Atlanta, GA, USA.  www.ashrae.org  All rights reserved as noted in the License Agreement and Additional Conditions. DISCLAIMER OF WARRANTIES: The data is provided 'as is' without warranty of any kind, either expressed or implied. The entire risk as to the quality and performance of the data is with you. In no event will ASHRAE or its contractors be liable to you for any damages, including without limitation any lost profits, lost savings, or other incidental or consequential damages arising out of the use or inability to use this data."
COMMENTS 2, -- Ground temps produced with a standard soil diffusivity of 2.3225760E-03 {m**2/day}
DATA PERIODS,1,1,Data,Sunday, 1/ 1,12/31
2018,2,8,1,60,A7A7E8B8*0?9?9?9?9?9?9?9A7A7A7B8A7A7*0E8*0*0,24.84847,20.9639884,93.10213,101000,0,1405,388,0.0,0,0.0,0,0,0,0.0,290.2963056,1.73,9,1,11.3,9000,9,999999999,0.0,0.16,0,88,0,0,0.0
2018,2,8,2,60,A7A7E8E8*0?9?9?9?9?9?9?9A7A7A7A7A7A7*0E8*0*0,24.59512,20.91801475,94.44337,101000,0,1405,387,0.0,0,0.0,0,0,0,0.0,192.2924167,1.73,9,1,14.0,9000,0,999999919,0.0,0.16,0,88,0,0,0.0
2018,2,8,3,60,A7A7E8B8*0?9?9?9?9?9?9?9A7A7B8B8A7A7*0E8*0*0,24.36949,20.87231594,95.6839,100900,0,1405,388,0.0,0,0.0,0,0,0,0.0,151.77575,1.73,9,1,9.9,22000,9,999999999,0.0,0.16,0,88,0,0,0.0
2018,2,8,4,60,A7A7E8B8*0?9?9?9?9?9?9?9A7A7B8B8A7A7*0E8*0*0,24.23756,20.69226236,95.42952,100800,0,1405,388,0.0,0,0.0,0,0,0,0.0,204.6646389,1.73,9,1,9.9,22000,9,999999999,0.0,0.16,0,88,0,0,0.0
2018,2,8,5,60,A7A7E8E8*0?9?9?9?9?9?9?9A7A7A7A7A7*0*0E8*0*0,24.06947,20.57193352,95.73805,100800,0,1405,388,0.0,0,0.0,0,0,0,0.0,132.3568056,1.73,9,1,12.0,22000,0,999999919,0.0,0.16,0,88,0,0,0.0
2018,2,8,6,60,A7A7E8B8*0?9?9?9?9?9?9?9A7A7A7B8A7A7*0E8*0*0,23.93428,20.66866761,97.24865,100800,0,1405,388,0.0,0,0.0,0,0,0,0.0,181.0431111,1.73,9,1,11.3,9000,9,999999999,0.0,0.16,0,88,0,0,0.0
2018,2,8,7,60,A7A7E8B8*0?9?9?9?9?9?9?9A7A7B8B8A7A7*0E8*0*0,23.88198,20.6663348,97.60983,100800,0,1405,388,0.0,0,0.0,0,0,0,0.0,161.6668889,1.73,9,1,9.9,22000,9,999999999,0.0,0.16,0,88,0,0,0.0
2018,2,8,8,60,A7A7E8E8*0G9G9G9I9I9I9I9A7A7A7A7A7A7*0E8*0*0,24.07654,20.68254468,96.66979,100800,80,1405,388,31.0,8,31.0,1300,0,1300,420.0,212.6112222,1.73,9,1,12.0,9000,0,999999919,0.0,0.16,0,88,0,0,0.0
2018,2,8,9,60,A7A7E8B8*0G9G9G9I9I9I9I9A7A7A7B8A7A7*0E8*0*0,25.10871,20.97115724,92.58198,100900,409,1405,398,227.6666667,372,117.0,15100,4300,13700,3020.0,181.0034167,1.73,9,2,11.3,9000,9,999999999,0.0,0.16,0,88,0,0,0.0
2018,2,8,10,60,A7A7E8B8*0G9G9G9I9I9I9I9A7A7A7B8A7A7*0E8*0*0,26.59905,21.60432311,86.09244,100900,728,1405,405,486.1666667,616,166.0,51200,45400,25900,3630.0,165.7971667,1.73,5,2,11.3,22000,9,999999999,0.0,0.16,0,88,0,0,0.0
2018,2,8,11,60,A7A7E8E8*0G9G9G9I9I9I9I9A7A7A7A7A7A7*0E8*0*0,27.95579,21.13235155,76.4564,101000,997,1405,413,715.0833333,749,183.0,52500,14000,43000,10590.0,144.5515,1.73,9,2,14.0,7800,0,999999919,0.0,0.16,0,88,0,0,0.0
2018,2,8,12,60,A7A7E8B8*0G9G9G9I9I9I9I9A7A7A7B8A7A7*0E8*0*0,29.92598,21.32535818,67.83367,100900,1197,1405,420,873.16667,762,223.0,98900,72300,33000,10070.0,118.71825,1.73,5,2,11.3,22000,9,999999999,0.0,0.16,0,88,0,0,0.0
2018,2,8,13,60,A7A7E8B8*0G9G9G9I9I9I9I9A7A7A7B8A7A7*0E8*0*0,31.38583,21.2922302,62.06386,100800,1315,1405,414,959.5833333,681,321.0,74400,21600,54000,24820.0,158.8294444,1.73,9,2,11.3,600,9,999999999,0.0,0.16,0,88,0,0,0.0
2018,2,8,14,60,A7A7E8E8*0G9G9G9I9I9I9I9A7A7A7A7A7A7*0E8*0*0,32.50088,20.95995571,58.17388,100800,1343,1405,418,986.5,708,309.0,18200,57500,29990,241.4837,241.48375,1.73,2,18,9000.0,0,999999919,0,0.16,0.0,88,0,0,0,0.0
2018,2,8,15,60,A7A7E8B8*0G9G9G9I9I9I9I9A7A7A7B8A7A7*0E8*0*0,32.98488,20.78817522,57.15799,100700,1279,1405,420,934.9166667,898,115.0,72300,18000,54300,22020.0,140.9687222,1.73,9,2,11.3,9000,9,999999999,0.0,0.16,0,88,0,0,0.0
2018,2,8,16,60,A7A7E8B8*0G9G9G9I9I9I9I9A7A7A7B8A7A7*0E8*0*0,33.0283,21.22443627,57.95292,100600,1127,1405,421,796.0833333,779,169.0,62200,10300,52600,17280.0,128.9426667,1.73,9,2,11.3,9000,9,999999999,0.0,0.16,0,88,0,0,0.0
2018,2,8,17,60,A7A7E8E8*0G9G9G9I9I9I9I9A7A7A7A7A7A7*0E8*0*0,32.39192,21.25599636,60.1935,100600,898,1405,409,549.4166667,443,265.0,46400,7500,41100,11170.0,189.5155833,1.73,9,1,18.0,9000,0,999999919,0.0,0.16,0,88,0,0,0.0
2018,2,8,18,60,B8C8E8B8*0H9H9H9I9I9I9I9*0B8B8B8B8*0*0E8*0*0,31.01849,21.31066555,65.02406,100600,607,1405,405,186.75,107,140.0,27100,7700,23200,5530.0,148.3219722,1.73,9,1,17.3,9000,9,999999999,0.0,0.16,0,88,0,0,0.0
2018,2,8,19,60,B8C8E8B8*0H9H9H9I9I9I9I9*0B8B8B8B8*0*0E8*0*0,29.39762,21.54341375,72.03487,100700,274,1405,401,46.08333333,5,43.0,7700,100,7600,2360.0,156.3903333,1.73,9,1,16.7,9000,9,999999999,0.0,0.16,0,88,0,0,0.0
2018,2,8,20,60,A7A7E8E8*0G9G9G9I9I9I9I9A7A7A7A7A7A7*0E8*0*0,28.01075,21.79311699,79.45071,100700,14,1405,397,0.36389,0,0.36389,200,0,200,80.0,166.4605833,1.73,9,1,16.0,8400,0,999999919,0.0,0.16,0,88,0,0,0.0
2018,2,8,21,60,A7A7E8B8*0?9?9?9?9?9?9?9A7A7A7B8A7A7*0E8*0*0,26.98097,21.32945359,82.39609,100800,0,1405,394,0.0,0,0.0,0,0,0,0.0,125.7566111,1.73,9,1,11.3,8400,9,999999999,0.0,0.16,0,88,0,0,0.0
2018,2,8,22,60,A7A7E8B8*0?9?9?9?9?9?9?9A7A7A7B8A7A7*0E8*0*0,26.24763,21.35973383,86.64576,100800,0,1405,394,0.0,0,0.0,0,0,0,0.0,122.6716389,1.73,9,1,11.3,9000,9,999999999,0.0,0.16,0,88,0,0,0.0
2018,2,8,23,60,A7A7E8E8*0?9?9?9?9?9?9?9A7A7A7A7A7A7*0E8*0*0,25.91044,21.52285166,89.75746,100900,0,1405,392,0.0,0,0.0,0,0,0,0.0,93.29647222,1.73,9,1,16.0,10500,0,999999919,0.0,0.16,0,88,0,0,0.0
2018,2,8,24,60,A7A7E8B8*0?9?9?9?9?9?9?9A7A7A7B8A7A7*0E8*0*0,25.59822,21.38031455,90.90652,100900,0,1405,389,0.0,0,0.0,0,0,0,0.0,145.3520833,1.73,9,1,11.3,10500,9,999999999,0.0,0.16,0,88,0,0,0.0
2018,2,9,1,60,A7A7E8B8*0?9?9?9?9?9?9?9A7A7A7B8A7A7*0E8*0*0,24.84847,20.9639884,93.10213,101000,0,1405,388,0.0,0,0.0,0,0,0,0.0,290.2963056,1.73,9,1,11.3,9000,9,999999999,0.0,0.16,0,88,0,0,0.0
2018,2,9,2,60,A7A7E8E8*0?9?9?9?9?9?9?9A7A7A7A7A7A7*0E8*0*0,24.59512,20.91801475,94.44337,101000,0,1405,387,0.0,0,0.0,0,0,0,0.0,192.2924167,1.73,9,1,14.0,9000,0,999999919,0.0,0.16,0,88,0,0,0.0
2018,2,9,3,60,A7A7E8B8*0?9?9?9?9?9?9?9A7A7B8B8A7A7*0E8*0*0,24.36949,20.87231594,95.6839,100900,0,1405,388,0.0,0,0.0,0,0,0,0.0,151.77575,1.73,9,1,9.9,22000,9,999999999,0.0,0.16,0,88,0,0,0.0
2018,2,9,4,60,A7A7E8B8*0?9?9?9?9?9?9?9A7A7B8B8A7A7*0E8*0*0,24.23756,20.69226236,95.42952,100800,0,1405,388,0.0,0,0.0,0,0,0,0.0,204.6646389,1.73,9,1,9.9,22000,9,999999999,0.0,0.16,0,88,0,0,0.0
2018,2,9,5,60,A7A7E8E8*0?9?9?9?9?9?9?9A7A7A7A7A7*0*0E8*0*0,24.06947,20.57193352,95.73805,100800,0,1405,388,0.0,0,0.0,0,0,0,0.0,132.3568056,1.73,9,1,12.0,22000,0,999999919,0.0,0.16,0,88,0,0,0.0
2018,2,9,6,60,A7A7E8B8*0?9?9?9?9?9?9?9A7A7A7B8A7A7*0E8*0*0,23.93428,20.66866761,97.24865,100800,0,1405,388,0.0,0,0.0,0,0,0,0.0,181.0431111,1.73,9,1,11.3,9000,9,999999999,0.0,0.16,0,88,0,0,0.0
2018,2,9,7,60,A7A7E8B8*0?9?9?9?9?9?9?9A7A7B8B8A7A7*0E8*0*0,23.88198,20.6663348,97.60983,100800,0,1405,388,0.0,0,0.0,0,0,0,0.0,161.6668889,1.73,9,1,9.9,22000,9,999999999,0.0,0.16,0,88,0,0,0.0
2018,2,9,8,60,A7A7E8E8*0G9G9G9I9I9I9I9A7A7A7A7A7A7*0E8*0*0,24.07654,20.68254468,96.66979,100800,80,1405,388,31.0,8,31.0,1300,0,1300,420.0,212.6112222,1.73,9,1,12.0,9000,0,999999919,0.0,0.16,0,88,0,0,0.0
2018,2,9,9,60,A7A7E8B8*0G9G9G9I9I9I9I9A7A7A7B8A7A7*0E8*0*0,25.10871,20.97115724,92.58198,100900,409,1405,398,227.6666667,372,117.0,15100,4300,13700,3020.0,181.0034167,1.73,9,2,11.3,9000,9,999999999,0.0,0.16,0,88,0,0,0.0
2018,2,9,10,60,A7A7E8B8*0G9G9G9I9I9I9I9A7A7A7B8A7A7*0E8*0*0,26.59905,21.60432311,86.09244,100900,728,1405,405,486.1666667,616,166.0,51200,45400,25900,3630.0,165.7971667,1.73,5,2,11.3,22000,9,999999999,0.0,0.16,0,88,0,0,0.0
2018,2,9,11,60,A7A7E8E8*0G9G9G9I9I9I9I9A7A7A7A7A7A7*0E8*0*0,27.95579,21.13235155,76.4564,101000,997,1405,413,715.0833333,749,183.0,52500,14000,43000,10590.0,144.5515,1.73,9,2,14.0,7800,0,999999919,0.0,0.16,0,88,0,0,0.0
2018,2,9,12,60,A7A7E8B8*0G9G9G9I9I9I9I9A7A7A7B8A7A7*0E8*0*0,29.92598,21.32535818,67.83367,100900,1197,1405,420,873.16667,762,223.0,98900,72300,33000,10070.0,118.71825,1.73,5,2,11.3,22000,9,999999999,0.0,0.16,0,88,0,0,0.0
2018,2,9,13,60,A7A7E8B8*0G9G9G9I9I9I9I9A7A7A7B8A7A7*0E8*0*0,31.38583,21.2922302,62.06386,100800,1315,1405,414,959.5833333,681,321.0,74400,21600,54000,24820.0,158.8294444,1.73,9,2,11.3,600,9,999999999,0.0,0.16,0,88,0,0,0.0
2018,2,9,14,60,A7A7E8E8*0G9G9G9I9I9I9I9A7A7A7A7A7A7*0E8*0*0,32.50088,20.95995571,58.17388,100800,1343,1405,418,986.5,708,309.0,18200,57500,29990,241.4837,241.48375,1.73,2,18,9000.0,0,999999919,0,0.16,0.0,88,0,0,0,0.0
2018,2,9,15,60,A7A7E8B8*0G9G9G9I9I9I9I9A7A7A7B8A7A7*0E8*0*0,32.98488,20.78817522,57.15799,100700,1279,1405,420,934.9166667,898,115.0,72300,18000,54300,22020.0,140.9687222,1.73,9,2,11.3,9000,9,999999999,0.0,0.16,0,88,0,0,0.0
2018,2,9,16,60,A7A7E8B8*0G9G9G9I9I9I9I9A7A7A7B8A7A7*0E8*0*0,33.0283,21.22443627,57.95292,100600,1127,1405,421,796.0833333,779,169.0,62200,10300,52600,17280.0,128.9426667,1.73,9,2,11.3,9000,9,999999999,0.0,0.16,0,88,0,0,0.0
2018,2,9,17,60,A7A7E8E8*0G9G9G9I9I9I9I9A7A7A7A7A7A7*0E8*0*0,32.39192,21.25599636,60.1935,100600,898,1405,409,549.4166667,443,265.0,46400,7500,41100,11170.0,189.5155833,1.73,9,1,18.0,9000,0,999999919,0.0,0.16,0,88,0,0,0.0
2018,2,9,18,60,B8C8E8B8*0H9H9H9I9I9I9I9*0B8B8B8B8*0*0E8*0*0,31.01849,21.31066555,65.02406,100600,607,1405,405,186.75,107,140.0,27100,7700,23200,5530.0,148.3219722,1.73,9,1,17.3,9000,9,999999999,0.0,0.16,0,88,0,0,0.0
2018,2,9,19,60,B8C8E8B8*0H9H9H9I9I9I9I9*0B8B8B8B8*0*0E8*0*0,29.39762,21.54341375,72.03487,100700,274,1405,401,46.08333333,5,43.0,7700,100,7600,2360.0,156.3903333,1.73,9,1,16.7,9000,9,999999999,0.0,0.16,0,88,0,0,0.0
2018,2,9,20,60,A7A7E8E8*0G9G9G9I9I9I9I9A7A7A7A7A7A7*0E8*0*0,28.01075,21.79311699,79.45071,100700,14,1405,397,0.36389,0,0.36389,200,0,200,80.0,166.4605833,1.73,9,1,16.0,8400,0,999999919,0.0,0.16,0,88,0,0,0.0
2018,2,9,21,60,A7A7E8B8*0?9?9?9?9?9?9?9A7A7A7B8A7A7*0E8*0*0,26.98097,21.32945359,82.39609,100800,0,1405,394,0.0,0,0.0,0,0,0,0.0,125.7566111,1.73,9,1,11.3,8400,9,999999999,0.0,0.16,0,88,0,0,0.0
2018,2,9,22,60,A7A7E8B8*0?9?9?9?9?9?9?9A7A7A7B8A7A7*0E8*0*0,26.24763,21.35973383,86.64576,100800,0,1405,394,0.0,0,0.0,0,0,0,0.0,122.6716389,1.73,9,1,11.3,9000,9,999999999,0.0,0.16,0,88,0,0,0.0
2018,2,9,23,60,A7A7E8E8*0?9?9?9?9?9?9?9A7A7A7A7A7A7*0E8*0*0,25.91044,21.52285166,89.75746,100900,0,1405,392,0.0,0,0.0,0,0,0,0.0,93.29647222,1.73,9,1,16.0,10500,0,999999919,0.0,0.16,0,88,0,0,0.0
2018,2,9,24,60,A7A7E8B8*0?9?9?9?9?9?9?9A7A7A7B8A7A7*0E8*0*0,25.59822,21.38031455,90.90652,100900,0,1405,389,0.0,0,0.0,0,0,0,0.0,145.3520833,1.73,9,1,11.3,10500,9,999999999,0.0,0.16,0,88,0,0,0.0
2018,2,10,1,60,A7A7E8B8*0?9?9?9?9?9?9?9A7A7A7B8A7A7*0E8*0*0,24.84847,20.9639884,93.10213,101000,0,1405,388,0.0,0,0.0,0,0,0,0.0,290.2963056,1.73,9,1,11.3,9000,9,999999999,0.0,0.16,0,88,0,0,0.0
2018,2,10,2,60,A7A7E8E8*0?9?9?9?9?9?9?9A7A7A7A7A7A7*0E8*0*0,24.59512,20.91801475,94.44337,101000,0,1405,387,0.0,0,0.0,0,0,0,0.0,192.2924167,1.73,9,1,14.0,9000,0,999999919,0.0,0.16,0,88,0,0,0.0
2018,2,10,3,60,A7A7E8B8*0?9?9?9?9?9?9?9A7A7B8B8A7A7*0E8*0*0,24.36949,20.87231594,95.6839,100900,0,1405,388,0.0,0,0.0,0,0,0,0.0,151.77575,1.73,9,1,9.9,22000,9,999999999,0.0,0.16,0,88,0,0,0.0
2018,2,10,4,60,A7A7E8B8*0?9?9?9?9?9?9?9A7A7B8B8A7A7*0E8*0*0,24.23756,20.69226236,95.42952,100800,0,1405,388,0.0,0,0.0,0,0,0,0.0,204.6646389,1.73,9,1,9.9,22000,9,999999999,0.0,0.16,0,88,0,0,0.0
2018,2,10,5,60,A7A7E8E8*0?9?9?9?9?9?9?9A7A7A7A7A7*0*0E8*0*0,24.06947,20.57193352,95.73805,100800,0,1405,388,0.0,0,0.0,0,0,0,0.0,132.3568056,1.73,9,1,12.0,22000,0,999999919,0.0,0.16,0,88,0,0,0.0
2018,2,10,6,60,A7A7E8B8*0?9?9?9?9?9?9?9A7A7A7B8A7A7*0E8*0*0,23.93428,20.66866761,97.24865,100800,0,1405,388,0.0,0,0.0,0,0,0,0.0,181.0431111,1.73,9,1,11.3,9000,9,999999999,0.0,0.16,0,88,0,0,0.0
2018,2,10,7,60,A7A7E8B8*0?9?9?9?9?9?9?9A7A7B8B8A7A7*0E8*0*0,23.88198,20.6663348,97.60983,100800,0,1405,388,0.0,0,0.0,0,0,0,0.0,161.6668889,1.73,9,1,9.9,22000,9,999999999,0.0,0.16,0,88,0,0,0.0
2018,2,10,8,60,A7A7E8E8*0G9G9G9I9I9I9I9A7A7A7A7A7A7*0E8*0*0,24.07654,20.68254468,96.66979,100800,80,1405,388,31.0,8,31.0,1300,0,1300,420.0,212.6112222,1.73,9,1,12.0,9000,0,999999919,0.0,0.16,0,88,0,0,0.0
2018,2,10,9,60,A7A7E8B8*0G9G9G9I9I9I9I9A7A7A7B8A7A7*0E8*0*0,25.10871,20.97115724,92.58198,100900,409,1405,398,227.6666667,372,117.0,15100,4300,13700,3020.0,181.0034167,1.73,9,2,11.3,9000,9,999999999,0.0,0.16,0,88,0,0,0.0
2018,2,10,10,60,A7A7E8B8*0G9G9G9I9I9I9I9A7A7A7B8A7A7*0E8*0*0,26.59905,21.60432311,86.09244,100900,728,1405,405,486.1666667,616,166.0,51200,45400,25900,3630.0,165.7971667,1.73,5,2,11.3,22000,9,999999999,0.0,0.16,0,88,0,0,0.0
2018,2,10,11,60,A7A7E8E8*0G9G9G9I9I9I9I9A7A7A7A7A7A7*0E8*0*0,27.95579,21.13235155,76.4564,101000,997,1405,413,715.0833333,749,183.0,52500,14000,43000,10590.0,144.5515,1.73,9,2,14.0,7800,0,999999919,0.0,0.16,0,88,0,0,0.0
2018,2,10,12,60,A7A7E8B8*0G9G9G9I9I9I9I9A7A7A7B8A7A7*0E8*0*0,29.92598,21.32535818,67.83367,100900,1197,1405,420,873.16667,762,223.0,98900,72300,33000,10070.0,118.71825,1.73,5,2,11.3,22000,9,999999999,0.0,0.16,0,88,0,0,0.0
2018,2,10,13,60,A7A7E8B8*0G9G9G9I9I9I9I9A7A7A7B8A7A7*0E8*0*0,31.38583,21.2922302,62.06386,100800,1315,1405,414,959.5833333,681,321.0,74400,21600,54000,24820.0,158.8294444,1.73,9,2,11.3,600,9,999999999,0.0,0.16,0,88,0,0,0.0
2018,2,10,14,60,A7A7E8E8*0G9G9G9I9I9I9I9A7A7A7A7A7A7*0E8*0*0,32.50088,20.95995571,58.17388,100800,1343,1405,418,986.5,708,309.0,18200,57500,29990,241.4837,241.48375,1.73,2,18,9000.0,0,999999919,0,0.16,0.0,88,0,0,0,0.0
2018,2,10,15,60,A7A7E8B8*0G9G9G9I9I9I9I9A7A7A7B8A7A7*0E8*0*0,32.98488,20.78817522,57.15799,100700,1279,1405,420,934.9166667,898,115.0,72300,18000,54300,22020.0,140.9687222,1.73,9,2,11.3,9000,9,999999999,0.0,0.16,0,88,0,0,0.0
2018,2,10,16,60,A7A7E8B8*0G9G9G9I9I9I9I9A7A7A7B8A7A7*0E8*0*0,33.0283,21.22443627,57.95292,100600,1127,1405,421,796.0833333,779,169.0,62200,10300,52600,17280.0,128.9426667,1.73,9,2,11.3,9000,9,999999999,0.0,0.16,0,88,0,0,0.0
2018,2,10,17,60,A7A7E8E8*0G9G9G9I9I9I9I9A7A7A7A7A7A7*0E8*0*0,32.39192,21.25599636,60.1935,100600,898,1405,409,549.4166667,443,265.0,46400,7500,41100,11170.0,189.5155833,1.73,9,1,18.0,9000,0,999999919,0.0,0.16,0,88,0,0,0.0
2018,2,10,18,60,B8C8E8B8*0H9H9H9I9I9I9I9*0B8B8B8B8*0*0E8*0*0,31.01849,21.31066555,65.02406,100600,607,1405,405,186.75,107,140.0,27100,7700,23200,5530.0,148.3219722,1.73,9,1,17.3,9000,9,999999999,0.0,0.16,0,88,0,0,0.0
2018,2,10,19,60,B8C8E8B8*0H9H9H9I9I9I9I9*0B8B8B8B8*0*0E8*0*0,29.39762,21.54341375,72.03487,100700,274,1405,401,46.08333333,5,43.0,7700,100,7600,2360.0,156.3903333,1.73,9,1,16.7,9000,9,999999999,0.0,0.16,0,88,0,0,0.0
2018,2,10,20,60,A7A7E8E8*0G9G9G9I9I9I9I9A7A7A7A7A7A7*0E8*0*0,28.01075,21.79311699,79.45071,100700,14,1405,397,0.36389,0,0.36389,200,0,200,80.0,166.4605833,1.73,9,1,16.0,8400,0,999999919,0.0,0.16,0,88,0,0,0.0
2018,2,10,21,60,A7A7E8B8*0?9?9?9?9?9?9?9A7A7A7B8A7A7*0E8*0*0,26.98097,21.32945359,82.39609,100800,0,1405,394,0.0,0,0.0,0,0,0,0.0,125.7566111,1.73,9,1,11.3,8400,9,999999999,0.0,0.16,0,88,0,0,0.0
2018,2,10,22,60,A7A7E8B8*0?9?9?9?9?9?9?9A7A7A7B8A7A7*0E8*0*0,26.24763,21.35973383,86.64576,100800,0,1405,394,0.0,0,0.0,0,0,0,0.0,122.6716389,1.73,9,1,11.3,9000,9,999999999,0.0,0.16,0,88,0,0,0.0
2018,2,10,23,60,A7A7E8E8*0?9?9?9?9?9?9?9A7A7A7A7A7A7*0E8*0*0,25.91044,21.52285166,89.75746,100900,0,1405,392,0.0,0,0.0,0,0,0,0.0,93.29647222,1.73,9,1,16.0,10500,0,999999919,0.0,0.16,0,88,0,0,0.0
2018,2,10,24,60,A7A7E8B8*0?9?9?9?9?9?9?9A7A7A7B8A7A7*0E8*0*0,25.59822,21.38031455,90.90652,100900,0,1405,389,0.0,0,0.0,0,0,0,0.0,145.3520833,1.73,9,1,11.3,10500,9,999999999,0.0,0.16,0,88,0,0,0.0
